
  12    4
  10   10   10   10

   0   0   0   0   0   4 2 6 7 8 
   3  10  10  10  10   2 5 3 
   4  10  10  10  10   2 9 4 
   1  10  10  10  10   1 10 
   3  10  10  10  10   1 9 
   2  10  10  10  10   1 10 
   8  10  10  10  10   1 9 
   4  10  10  10  10   1 9 
   9  10  10  10  10   1 11 
   6  10  10  10  10   1 11 
   1  10  10  10  10   1 12
   0   0   0   0   0   0 
